db/inputs/1857523663144752567623977356647221793.smt2
(set-logic QF_FP)
(declare-const x0 (_ FloatingPoint 11 53))
(declare-const x1 (_ FloatingPoint 11 53))
(declare-const x2 (_ FloatingPoint 11 53))
(declare-const x3 (_ FloatingPoint 11 53))
(declare-const x4 (_ FloatingPoint 11 53))
(declare-const x5 (_ FloatingPoint 11 53))
(declare-const x6 (_ FloatingPoint 11 53))
(declare-const x7 (_ FloatingPoint 11 53))
(declare-const x8 (_ FloatingPoint 11 53))
(declare-const x9 (_ FloatingPoint 11 53))
(declare-const x10 (_ FloatingPoint 11 53))
(declare-const x11 (_ FloatingPoint 11 53))
(declare-const x12 (_ FloatingPoint 11 53))
(declare-const x13 (_ FloatingPoint 11 53))
(declare-const x14 (_ FloatingPoint 11 53))
(declare-const x15 (_ FloatingPoint 11 53))
(declare-const x16 (_ FloatingPoint 11 53))
(declare-const x17 (_ FloatingPoint 11 53))
(assert (fp.eq (fp.mul RNE x16 x3) (fp.mul RNE x3 x11)))
(assert (fp.lt (fp.neg x7) (fp.sub RNE x6 x6)))
(assert (fp.lt (fp.sub RNE x1 x15) (fp.neg x13)))
(assert (fp.leq (fp.div RNE x13 x14) (fp.add RNE x11 x16)))
(assert (fp.gt (fp.mul RNE x1 x16) (fp.neg x15)))
(assert (fp.gt (fp.div RNE x2 x6) (fp.mul RNE x5 x14)))
(assert (fp.eq (fp.add RNE x1 x1) (fp.mul RNE x11 x14)))
(assert (fp.gt (fp.mul RNE x4 x8) (fp.neg x4)))
(assert (fp.lt (fp.mul RNE x7 x10) (fp.sub RNE x1 x5)))
(assert (fp.lt (fp.sub RNE x16 x6) (fp.add RNE x14 x3)))
(check-sat)
