db/data/1857523663144752567623977356647221793.z3.out
-------------------
2500.071885650
